nbGenes = 10;
preference = [[0 45 68 80 43 49 42 35 83 2 ]
[55 0 58 84 93 76 39 99 41 50 ]
[32 42 0 53 87 49 35 25 86 97 ]
[20 16 47 0 14 67 17 6 13 59 ]
[57 7 13 86 0 0 80 24 74 88 ]
[51 24 51 33 100 0 51 18 15 48 ]
[58 61 65 83 20 49 0 9 63 81 ]
[65 1 75 94 76 82 91 0 88 39 ]
[17 59 14 87 26 85 37 12 0 9 ]
[98 50 3 41 12 52 19 61 91 0 ]
];
